Version identifier: 22.1.1.0 | 2022-11-28 | 9160aff4d
CPXPARAM_ClockType                               1
CPXPARAM_Read_DataCheck                          1
CPXPARAM_Threads                                 1
CPXPARAM_Simplex_Tolerances_Optimality           1.0000000000000001e-09
CPXPARAM_TimeLimit                               7200
CPXPARAM_MIP_Tolerances_AbsMIPGap                0
CPXPARAM_MIP_Tolerances_MIPGap                   0
CPXPARAM_MIP_Tolerances_Integrality              0
Tried aggregator 5 times.
MIQP Presolve eliminated 4674 rows and 950 columns.
MIQP Presolve modified 2 coefficients.
Aggregator did 287 substitutions.
Reduced MIQP has 1780 rows, 811 columns, and 4770 nonzeros.
Reduced MIQP has 608 binaries, 203 generals, 0 SOSs, and 0 indicators.
Reduced MIQP objective Q matrix has 203 nonzeros.
Presolve time = 0.02 sec. (10.71 ticks)
Probing time = 0.00 sec. (2.05 ticks)
Tried aggregator 1 time.
Reduced MIQP has 1780 rows, 811 columns, and 4770 nonzeros.
Reduced MIQP has 608 binaries, 203 generals, 0 SOSs, and 0 indicators.
Reduced MIQP objective Q matrix has 203 nonzeros.
Presolve time = 0.01 sec. (2.81 ticks)
Classifier predicts products in MIQP should be linearized.
Probing time = 0.00 sec. (2.03 ticks)
Clique table members: 1634.
MIP emphasis: balance optimality and feasibility.
MIP search method: dynamic search.
Parallel mode: none, using 1 thread.
Root relaxation solution time = 0.11 sec. (109.09 ticks)

        Nodes                                         Cuts/
   Node  Left     Objective  IInf  Best Integer    Best Bound    ItCnt     Gap

*     0     0      integral     0      203.0000      203.0000       13    0.00%
Elapsed time = 0.15 sec. (129.92 ticks, tree = 0.00 MB, solutions = 1)

Root node processing (before b&c):
  Real time             =    0.15 sec. (129.98 ticks)
Sequential b&c:
  Real time             =    0.00 sec. (0.00 ticks)
                          ------------
Total (root+branch&cut) =    0.15 sec. (129.98 ticks)
Solution is feasible.

---------------------
@@@ MIP_optimal
>>> Benchmark mc2024_track1_181.cnf k 2 OPT 203 TimeCost 0.5488576889038086 TimeSolve 0.1576082706451416 TimeRead 0.02288055419921875 TimeTrans 0.36836886405944824
